n = 36;
d = [1, 3, 6, 7, 3, 6, 8, 5, 10, 10, 10, 4, 5, 4, 8, 9, 1, 7, 5, 5, 5, 3, 8, 9, 9, 3, 5, 4, 3, 1, 3, 3, 9, 10, 4, 1];
m = 30;
pre = [1, 2, 3, 4, 5, 7, 8, 9, 10, 11, 13, 14, 15, 16, 17, 19, 20, 21, 22, 23, 25, 26, 27, 28, 29, 31, 32, 33, 34, 35];
post = [2, 3, 4, 5, 6, 8, 9, 10, 11, 12, 14, 15, 16, 17, 18, 20, 21, 22, 23, 24, 26, 27, 28, 29, 30, 32, 33, 34, 35, 36];
o = 6;
disj = [{2,11,16,20,29,34}, {3,7,17,19,26,31}, {1,8,13,21,25,36}, {4,12,14,22,30,32}, {6,9,18,23,27,35}, {5,10,15,24,28,33}];